clingo version 5.5.2
Reading from ...nt/beegfs/home/jubruns/encoding/mif.lp ...
Solving...
Answer: 1
move(1,(12,17),(11,17),1) move(1,(11,17),(10,17),2) move(1,(10,17),(10,16),3) move(1,(10,16),(10,15),4) move(1,(10,15),(10,14),5) move(1,(10,14),(10,13),6) move(1,(10,13),(10,12),7) move(1,(10,12),(10,11),8) move(1,(10,11),(10,10),9) move(1,(10,10),(10,9),10) move(1,(10,9),(10,8),11) move(1,(10,8),(10,7),12) move(1,(10,7),(9,7),13) move(1,(9,7),(8,7),14) move(1,(8,7),(7,7),15) move(2,(18,8),(17,8),2) move(2,(17,8),(16,8),3) move(2,(16,8),(16,9),4) move(2,(16,9),(16,10),5) move(2,(16,10),(16,11),6) move(2,(16,11),(16,12),7) move(2,(16,12),(16,13),8) move(2,(16,13),(16,12),10) move(2,(16,12),(16,11),11) move(2,(16,11),(15,11),12) move(2,(15,11),(14,11),13) move(2,(14,11),(13,11),14) move(2,(13,11),(12,11),15)
SATISFIABLE

Models       : 1+
Calls        : 1
Time         : 0.242s (Solving: 0.01s 1st Model: 0.01s Unsat: 0.00s)
CPU Time     : 0.215s

Choices      : 15       (Domain: 15)
Conflicts    : 3        (Analyzed: 3)
Restarts     : 0       
Model-Level  : 10.0    
Problems     : 1        (Average Length: 0.00 Splits: 0)
Lemmas       : 3        (Deleted: 0)
  Binary     : 0        (Ratio:   0.00%)
  Ternary    : 0        (Ratio:   0.00%)
  Conflict   : 3        (Average Length:    2.3 Ratio: 100.00%) 
  Loop       : 0        (Average Length:    0.0 Ratio:   0.00%) 
  Other      : 0        (Average Length:    0.0 Ratio:   0.00%) 
Backjumps    : 3        (Average:  1.67 Max:   3 Sum:      5)
  Executed   : 3        (Average:  1.67 Max:   3 Sum:      5 Ratio: 100.00%)
  Bounded    : 0        (Average:  0.00 Max:   0 Sum:      0 Ratio:   0.00%)

Rules        : 91534    (Original: 60259)
  Choice     : 30      
  Heuristic  : 1411     (Original: 1418)
Atoms        : 52444    (Original: 37519 Auxiliary: 14925)
Bodies       : 50666    (Original: 34344)
  Count      : 22       (Original: 89)
Equivalences : 24653    (Atom=Atom: 32 Body=Body: 35 Other: 24586)
Tight        : Yes
Variables    : 55920    (Eliminated:    0 Frozen: 16896)
Constraints  : 125991   (Binary:  80.8% Ternary:  18.4% Other:   0.8%)

